(set-logic QF_S)
(declare-fun var_0xINPUT_115192 () String)
(assert (and (= (len var_0xINPUT_115192) 0) (= (len var_0xINPUT_115192) 0) (not (= var_0xINPUT_115192 "6JX7G3VKFq"))))
(check-sat var_0xINPUT_115192)